(set-logic QF_UF)
(declare-sort Z 0)
(declare-fun circuit () Bool)
(declare-fun input () Bool)
(declare-fun reg () Bool)
(declare-fun flash () Z)
(declare-fun nf () Z)
(declare-fun nf0 () Z)
(assert (not (= (not (not (and (not (= nf0 flash)) (= nf0 nf)))) false)))
(assert (= (not (not (and (not (= nf0 flash)) (= nf0 nf)))) (and (not (= flash nf0)) (= nf nf0))))
(assert (= (and (not (= flash nf0)) (= nf nf0)) false))
(check-sat)
(exit)
